400
50
51 104
51 100
48 105
51 100
53 104
48 102
48 95
50 105
49 99
49 98
51 100
51 101
52 104
56 101
44 98
50 102
51 102
49 102
54 98
49 106
53 109
49 103
48 102
47 99
47 101
49 99
47 101
52 103
49 89
48 100
51 100
48 101
47 99
51 91
54 99
49 101
51 98
51 103
50 94
48 100
54 106
53 100
48 90
51 103
49 99
48 100
47 102
48 101
49 96
56 101